4 100 1977
10 7 4 10 7 5 10 10 3 11
2 2 2 3
6 4
7 4
5 8
5 2 9
0 40.0 50.0 0.0 0.0 0 1236
2 45.0 68.0 90.0 10.0 885 994 1 0 0 0 1 0 0 1 0 0 0
3 45.0 70.0 90.0 30.0 802 893 51 0 0 0 1 0 0 0 0 0 1
4 42.0 66.0 90.0 10.0 25 186 1 1 0 1 0 0 1 0 1 0 0
5 42.0 68.0 90.0 10.0 699 810 46 1 1 0 0 0 0 0 1 0 0
6 42.0 65.0 90.0 10.0 15 120 80 0 1 1 0 0 0 0 0 0 0
7 40.0 69.0 90.0 20.0 580 743 83 0 0 0 0 0 0 0 0 0 1
8 40.0 66.0 90.0 20.0 142 253 72 0 0 0 0 1 1 1 0 0 1
9 38.0 68.0 90.0 20.0 220 359 87 0 0 0 0 0 0 0 1 0 0
10 38.0 70.0 90.0 10.0 499 640 38 0 0 0 0 0 1 0 0 0 0
11 35.0 66.0 90.0 10.0 331 436 5 0 0 0 1 0 0 0 1 0 0
12 35.0 69.0 90.0 10.0 420 533 53 0 0 1 0 1 1 0 0 1 1
13 25.0 85.0 90.0 20.0 617 756 23 0 0 0 0 0 0 0 0 0 1
14 22.0 75.0 90.0 30.0 30 155 62 1 0 0 0 0 0 0 1 0 0
15 22.0 85.0 90.0 10.0 541 646 68 1 1 0 0 1 0 0 1 0 1
16 20.0 80.0 90.0 40.0 362 451 44 0 1 0 0 0 0 0 0 0 1
17 20.0 85.0 90.0 40.0 448 555 82 0 0 0 0 0 1 0 0 0 0
18 18.0 75.0 90.0 20.0 75 172 62 1 0 0 0 1 0 0 0 0 0
19 15.0 75.0 90.0 20.0 142 291 85 0 0 0 0 0 0 1 0 1 0
20 15.0 80.0 90.0 10.0 244 379 32 0 1 0 0 0 0 0 0 0 0
21 30.0 50.0 90.0 10.0 10 137 61 0 0 0 0 0 1 0 0 0 0
22 30.0 52.0 90.0 20.0 888 991 73 0 0 0 1 0 0 0 1 0 0
23 28.0 52.0 90.0 20.0 776 919 35 0 0 0 0 0 0 0 0 0 1
24 28.0 55.0 90.0 10.0 709 800 23 0 0 0 0 0 0 0 1 0 0
25 25.0 50.0 90.0 10.0 25 184 13 0 1 1 0 0 0 0 0 0 0
26 25.0 52.0 90.0 40.0 142 251 44 0 0 0 0 0 1 0 0 0 0
27 25.0 55.0 90.0 10.0 582 741 76 0 1 0 0 0 0 0 0 0 0
28 23.0 52.0 90.0 10.0 234 343 71 0 0 0 0 1 1 0 0 0 0
29 23.0 55.0 90.0 20.0 523 616 80 0 0 0 1 0 0 1 1 0 0
30 20.0 50.0 90.0 10.0 335 428 37 0 1 0 0 0 0 0 0 0 0
31 20.0 55.0 90.0 10.0 422 531 66 1 1 0 0 0 0 0 0 1 0
32 10.0 35.0 90.0 20.0 181 256 18 0 0 0 0 0 1 0 0 0 0
33 10.0 40.0 90.0 30.0 31 170 67 0 0 0 0 1 0 1 1 0 0
34 8.0 40.0 90.0 40.0 52 193 32 1 0 0 1 1 0 0 0 0 1
35 8.0 45.0 90.0 20.0 719 848 54 1 0 1 1 0 0 0 0 0 1
36 5.0 35.0 90.0 10.0 252 375 64 0 0 0 0 0 0 1 0 0 0
37 5.0 45.0 90.0 10.0 639 742 45 1 0 1 0 0 0 1 0 0 0
38 2.0 40.0 90.0 20.0 357 460 42 1 0 0 1 0 0 0 1 0 0
39 0.0 40.0 90.0 30.0 457 544 87 0 0 0 0 0 0 0 1 0 1
40 0.0 45.0 90.0 20.0 538 653 70 0 0 0 0 1 0 0 0 1 0
41 35.0 30.0 90.0 10.0 236 349 13 1 0 0 1 1 0 0 0 0 0
42 35.0 32.0 90.0 10.0 132 269 78 1 0 1 0 0 0 0 0 0 0
43 33.0 32.0 90.0 20.0 27 190 19 0 0 0 0 0 1 0 0 1 0
44 33.0 35.0 90.0 10.0 16 144 93 1 1 0 0 1 0 0 1 0 0
45 32.0 30.0 90.0 10.0 332 439 13 0 0 0 0 0 1 0 0 0 0
46 30.0 30.0 90.0 10.0 512 629 92 0 0 1 1 0 0 0 0 1 0
47 30.0 32.0 90.0 30.0 417 540 7 0 0 0 0 0 0 1 0 0 0
48 30.0 35.0 90.0 10.0 982 1127 86 0 0 0 0 0 1 0 0 0 0
49 28.0 30.0 90.0 10.0 601 724 87 1 0 0 1 1 0 0 1 0 1
50 28.0 35.0 90.0 10.0 969 1098 14 0 0 0 0 0 0 1 0 0 1
51 26.0 32.0 90.0 10.0 783 912 44 0 0 0 0 1 0 0 0 1 0
52 25.0 30.0 90.0 10.0 695 816 64 1 0 0 0 0 0 0 0 0 0
53 25.0 35.0 90.0 10.0 883 998 84 0 1 0 0 0 0 0 0 0 0
54 44.0 5.0 90.0 20.0 255 378 49 1 1 0 0 0 0 0 0 0 1
55 42.0 10.0 90.0 40.0 150 293 43 0 0 0 0 1 0 1 0 1 0
56 42.0 15.0 90.0 10.0 63 190 28 0 0 0 1 0 0 0 0 0 0
57 40.0 5.0 90.0 30.0 359 462 71 0 0 0 0 0 1 0 0 0 0
58 40.0 15.0 90.0 40.0 35 140 47 0 0 0 0 0 1 0 0 0 1
59 38.0 5.0 90.0 30.0 439 566 53 0 0 0 1 0 0 0 0 0 0
60 38.0 15.0 90.0 10.0 607 784 72 1 0 0 1 0 0 0 0 0 0
61 35.0 5.0 90.0 20.0 529 662 20 0 0 0 0 0 1 0 0 0 0
62 50.0 30.0 90.0 10.0 491 650 85 0 0 0 1 0 0 0 1 0 1
63 50.0 35.0 90.0 20.0 235 344 67 0 0 0 1 0 0 0 0 1 0
64 50.0 40.0 90.0 50.0 147 242 92 0 1 0 0 1 1 1 0 0 0
65 48.0 30.0 90.0 10.0 601 724 27 0 0 0 0 1 0 0 0 0 0
66 48.0 40.0 90.0 10.0 50 155 96 0 1 0 1 0 0 1 1 0 0
67 47.0 35.0 90.0 10.0 802 899 59 0 0 0 0 0 0 1 0 0 0
68 47.0 40.0 90.0 10.0 12 143 3 0 0 0 0 0 1 0 0 0 0
69 45.0 30.0 90.0 10.0 712 799 13 1 0 0 1 0 0 0 1 0 0
70 45.0 35.0 90.0 10.0 889 996 20 1 1 0 0 0 0 0 0 0 0
71 95.0 30.0 90.0 30.0 353 490 83 0 0 0 1 0 0 0 0 0 0
72 95.0 35.0 90.0 20.0 260 393 72 0 0 0 0 0 1 0 0 0 0
73 53.0 30.0 90.0 10.0 422 533 18 0 0 0 0 0 0 0 0 1 0
74 92.0 30.0 90.0 10.0 442 587 85 0 0 0 0 0 0 0 0 1 0
75 53.0 35.0 90.0 50.0 323 442 4 0 0 0 1 0 0 0 0 0 0
76 45.0 65.0 90.0 20.0 962 1103 45 0 0 0 0 0 0 0 1 0 1
77 90.0 35.0 90.0 10.0 175 288 48 0 0 0 0 1 0 0 0 0 0
78 88.0 30.0 90.0 10.0 539 678 39 0 0 1 0 0 0 0 0 0 1
79 88.0 35.0 90.0 20.0 78 201 87 0 0 0 1 0 0 0 0 0 1
80 87.0 30.0 90.0 10.0 636 763 4 0 0 1 0 0 0 0 0 1 1
81 85.0 25.0 90.0 10.0 744 845 15 0 0 0 0 0 0 1 0 1 0
82 85.0 35.0 90.0 30.0 47 201 46 1 0 0 0 0 0 0 1 0 0
83 75.0 55.0 90.0 20.0 344 445 11 0 0 0 0 1 0 0 0 0 1
84 72.0 55.0 90.0 10.0 228 375 99 0 0 0 0 0 1 0 0 0 0
85 70.0 58.0 90.0 20.0 425 556 22 0 0 0 0 0 1 0 1 0 1
86 68.0 60.0 90.0 30.0 527 640 20 0 0 0 1 0 1 0 0 1 1
87 66.0 55.0 90.0 10.0 141 270 92 1 0 1 0 1 0 0 1 0 1
88 65.0 55.0 90.0 20.0 56 173 0 0 0 0 0 0 1 0 0 0 0
89 65.0 60.0 90.0 30.0 614 739 71 0 0 1 0 0 0 0 0 0 0
90 63.0 58.0 90.0 10.0 705 834 85 0 1 0 0 0 0 0 0 0 1
91 60.0 55.0 90.0 10.0 20 148 91 0 0 0 0 1 0 1 0 0 0
92 60.0 60.0 90.0 10.0 809 916 56 0 1 0 0 0 1 0 1 0 0
93 67.0 85.0 90.0 20.0 331 478 27 1 1 1 0 0 0 0 0 0 0
94 65.0 85.0 90.0 40.0 453 540 68 0 0 1 0 0 0 1 0 0 0
95 65.0 82.0 90.0 10.0 260 361 84 0 0 0 0 0 0 1 0 1 1
96 62.0 80.0 90.0 30.0 174 261 1 0 0 0 0 0 0 1 1 0 0
97 60.0 80.0 90.0 10.0 64 187 85 0 0 0 1 1 0 0 0 0 0
98 60.0 85.0 90.0 30.0 531 652 36 1 0 0 0 0 0 0 0 0 1
99 58.0 75.0 90.0 20.0 30 139 37 0 0 0 1 0 0 0 1 0 1
100 55.0 80.0 90.0 10.0 705 858 9 0 0 0 1 1 0 0 0 0 0
101 55.0 85.0 90.0 20.0 608 765 85 0 1 0 0 0 1 1 1 0 0